; 
(set-info :status unknown)
(declare-fun node_0x7ffff172c550 () (_ BitVec 1))
(declare-fun ccso_node_0x7ffff1738220 () (_ BitVec 32))
(declare-fun ine_0x7ffff1738960 () (_ BitVec 1))
(declare-fun carg_node_0x7ffff172ba80 () (_ BitVec 64))
(declare-fun carg_node_0x7ffff06e1b40_CS0x4148268 () (_ BitVec 64))
(declare-fun carg_node_0x7ffff172bc00 () (_ BitVec 64))
(declare-fun carg_node_0x7ffff06e1ce0_CS0x4148268 () (_ BitVec 64))
(declare-fun node_0x7ffff1737c50 () (_ BitVec 64))
(declare-fun carg_node_0x7ffff06e1940_CS0x4148268 () (_ BitVec 64))
(declare-fun fsub_0x7ffff1737df0 () (_ BitVec 64))
(declare-fun fmul_0x7ffff1737a20 () (_ BitVec 64))
(declare-fun node_0x7ffff172e1e0 () (_ BitVec 64))
(declare-fun node_0x7ffff172e550 () (_ BitVec 64))
(declare-fun node_0x7ffff1737880 () (_ BitVec 64))
(declare-fun node_0x7ffff17374b0 () (_ BitVec 64))
(declare-fun fadd_0x7ffff1737650 () (_ BitVec 64))
(declare-fun fmul_0x7ffff1737280 () (_ BitVec 64))
(declare-fun node_0x7ffff17370e0 () (_ BitVec 64))
(declare-fun fmul_0x7ffff172e6f0 () (_ BitVec 64))
(declare-fun carg_node_0x7ffff172b900 () (_ BitVec 64))
(declare-fun node_0x7ffff1736d50 () (_ BitVec 64))
(declare-fun fmul_0x7ffff1736ef0 () (_ BitVec 64))
(declare-fun node_0x7ffff1733560 () (_ BitVec 64))
(declare-fun fsub_0x7ffff1733700 () (_ BitVec 64))
(declare-fun carg_node_0x7ffff172b0e0 () (_ BitVec 64))
(declare-fun node_0x7ffff17330f0 () (_ BitVec 64))
(declare-fun LdMem_0x7ffff1733290 () (_ BitVec 64))
(declare-fun pcso_node_0x1211b470 () (_ BitVec 64))
(declare-fun StMem_0x1211b650 () (_ BitVec 64))
(declare-fun R0x7ffff172aca0 () (_ BitVec 1))
(declare-fun node_0x7ffff1736980 () (_ BitVec 64))
(declare-fun fmul_0x7ffff1736b20 () (_ BitVec 64))
(declare-fun fmul_0x7ffff172e360 () (_ BitVec 64))
(declare-fun carg_node_0x7ffff172b780 () (_ BitVec 64))
(declare-fun node_0x7ffff17365f0 () (_ BitVec 64))
(declare-fun fmul_0x7ffff1736790 () (_ BitVec 64))
(declare-fun node_0x7ffff1732920 () (_ BitVec 64))
(declare-fun fsub_0x7ffff1732ac0 () (_ BitVec 64))
(declare-fun carg_node_0x7ffff172b590 () (_ BitVec 64))
(declare-fun node_0x7ffff17324d0 () (_ BitVec 64))
(declare-fun LdMem_0x7ffff1732650 () (_ BitVec 64))
(declare-fun pcso_node_0x1211bc60 () (_ BitVec 64))
(declare-fun StMem_0x1211be10 () (_ BitVec 64))
(declare-fun node_0x7ffff1736220 () (_ BitVec 64))
(declare-fun carg_node_0x7ffff06e17e0_CS0x4148268 () (_ BitVec 64))
(declare-fun fmul_0x7ffff17363c0 () (_ BitVec 64))
(declare-fun node_0x7ffff1735d10 () (_ BitVec 64))
(declare-fun fadd_0x7ffff1735eb0 () (_ BitVec 64))
(declare-fun fmul_0x7ffff1735ae0 () (_ BitVec 64))
(declare-fun node_0x7ffff1735940 () (_ BitVec 64))
(declare-fun node_0x7ffff1735570 () (_ BitVec 64))
(declare-fun fmul_0x7ffff1735710 () (_ BitVec 64))
(declare-fun node_0x7ffff1735100 () (_ BitVec 64))
(declare-fun LdMem_0x7ffff17305e0 () (_ BitVec 64))
(declare-fun pcso_node_0x12117e10 () (_ BitVec 64))
(declare-fun StMem_0x12117fc0 () (_ BitVec 64))
(declare-fun node_0x7ffff1734930 () (_ BitVec 64))
(declare-fun fmul_0x7ffff1734ad0 () (_ BitVec 64))
(declare-fun node_0x7ffff1734150 () (_ BitVec 64))
(declare-fun fmul_0x7ffff1734700 () (_ BitVec 64))
(declare-fun node_0x7ffff1733d30 () (_ BitVec 64))
(declare-fun LdMem_0x7ffff172ed80 () (_ BitVec 64))
(declare-fun pcso_node_0x12118610 () (_ BitVec 64))
(declare-fun StMem_0x121187c0 () (_ BitVec 64))
(declare-fun node_0x7ffff1731ac0 () (_ BitVec 64))
(declare-fun carg_node_0x7ffff06e1570_CS0x4148268 () (_ BitVec 64))
(declare-fun fadd_0x7ffff1731c60 () (_ BitVec 64))
(declare-fun fmul_0x7ffff1731890 () (_ BitVec 64))
(declare-fun node_0x7ffff1731510 () (_ BitVec 64))
(declare-fun node_0x7ffff1731140 () (_ BitVec 64))
(declare-fun fmul_0x7ffff17312e0 () (_ BitVec 64))
(declare-fun node_0x7ffff1730cd0 () (_ BitVec 64))
(declare-fun node_0x7ffff1730440 () (_ BitVec 64))
(declare-fun node_0x7ffff172fc50 () (_ BitVec 64))
(declare-fun fmul_0x7ffff172fdf0 () (_ BitVec 64))
(declare-fun node_0x7ffff172f880 () (_ BitVec 64))
(declare-fun fmul_0x7ffff172fa20 () (_ BitVec 64))
(declare-fun node_0x7ffff172f410 () (_ BitVec 64))
(declare-fun node_0x7ffff172ec00 () (_ BitVec 64))
(declare-fun return_node_0x7ffff06e1fc0_CS0x4148268 () (_ BitVec 32))
(declare-fun node_0x1211b120 () (_ BitVec 64))
(declare-fun parg_node_0x107ae730_CS0x4146978 () (_ BitVec 64))
(declare-fun LdMem_0x1211aad0 () (_ BitVec 64))
(declare-fun parg_node_0x1211adf0 () (_ BitVec 64))
(declare-fun StMem_0x1211ac40 () (_ BitVec 64))
(declare-fun node_0x107b0280_CS0x4146978 () (_ BitVec 64))
(declare-fun node_0x1211c2f0 () (_ BitVec 64))
(declare-fun parg_node_0x107adc10_CS0x4146978 () (_ BitVec 64))
(declare-fun LdMem_0x12119f60 () (_ BitVec 64))
(declare-fun parg_node_0x1211a1b0 () (_ BitVec 64))
(declare-fun StMem_0x1211a0a0 () (_ BitVec 64))
(declare-fun node_0x107af910_CS0x4146978 () (_ BitVec 64))
(declare-fun node_0x12119e20 () (_ BitVec 64))
(declare-fun parg_node_0x107b61b0_CS0x41455c8 () (_ BitVec 64))
(declare-fun LdMem_0x12117a90 () (_ BitVec 64))
(declare-fun parg_node_0x12117ce0 () (_ BitVec 64))
(declare-fun StMem_0x12117bd0 () (_ BitVec 64))
(declare-fun node_0x107b7d30_CS0x41455c8 () (_ BitVec 64))
(declare-fun node_0x7c37ea0 () (_ BitVec 64))
(declare-fun parg_node_0x107b5690_CS0x41455c8 () (_ BitVec 64))
(declare-fun LdMem_0x12117710 () (_ BitVec 64))
(declare-fun parg_node_0x12117960 () (_ BitVec 64))
(declare-fun StMem_0x12117850 () (_ BitVec 64))
(declare-fun node_0x107b7470_CS0x41455c8 () (_ BitVec 64))
(declare-fun carg_node_0x7ffff172be90 () (_ BitVec 64))
(assert
 (= node_0x7ffff172c550 (_ bv1 1)))
(assert
 (let (($x174 (= ine_0x7ffff1738960 (ite (and (distinct ccso_node_0x7ffff1738220 (_ bv0 32)) true) (_ bv1 1) (_ bv0 1)))))
 (and (= node_0x7ffff172c550 ine_0x7ffff1738960) $x174)))
(assert
 (= carg_node_0x7ffff06e1b40_CS0x4148268 carg_node_0x7ffff172ba80))
(assert
 (= carg_node_0x7ffff06e1ce0_CS0x4148268 carg_node_0x7ffff172bc00))
(assert
 (= carg_node_0x7ffff06e1940_CS0x4148268 node_0x7ffff1737c50))
(assert
 (let (($x340 (= node_0x7ffff1737c50 fsub_0x7ffff1737df0)))
 (let (($x301 (or (or (= node_0x7ffff172e550 (_ bv0 64)) (= node_0x7ffff172e1e0 (_ bv0 64))) (and (distinct fmul_0x7ffff1737a20 (_ bv0 64)) true))))
 (let (($x298 (= fmul_0x7ffff1737a20 (bvmul node_0x7ffff172e550 node_0x7ffff172e1e0))))
 (let (($x302 (and $x298 $x301)))
 (let (($x334 (= node_0x7ffff1737880 fmul_0x7ffff1737a20)))
 (let (($x197 (= fsub_0x7ffff1737df0 (bvsub node_0x7ffff17374b0 node_0x7ffff1737880))))
 (let (($x341 (= node_0x7ffff17374b0 fadd_0x7ffff1737650)))
 (let (($x218 (= node_0x7ffff17370e0 fmul_0x7ffff1737280)))
 (let (($x290 (= carg_node_0x7ffff172b900 (_ bv0 64))))
 (let ((?x288 (bvmul carg_node_0x7ffff172b900 carg_node_0x7ffff172b900)))
 (let (($x289 (= fmul_0x7ffff172e6f0 ?x288)))
 (let (($x294 (and $x289 (or (or $x290 $x290) (and (distinct fmul_0x7ffff172e6f0 (_ bv0 64)) true)))))
 (let (($x333 (= node_0x7ffff172e550 fmul_0x7ffff172e6f0)))
 (let (($x257 (= node_0x7ffff172e550 (_ bv0 64))))
 (let (($x256 (= node_0x7ffff1736d50 (_ bv0 64))))
 (let (($x258 (or $x256 $x257)))
 (let ((?x254 (bvmul node_0x7ffff1736d50 node_0x7ffff172e550)))
 (let (($x261 (and (= fmul_0x7ffff1737280 ?x254) (or $x258 (and (distinct fmul_0x7ffff1737280 (_ bv0 64)) true)))))
 (let (($x392 (= node_0x7ffff1736d50 fmul_0x7ffff1736ef0)))
 (let (($x270 (or (or (= node_0x7ffff1733560 (_ bv0 64)) (= node_0x7ffff1733560 (_ bv0 64))) (and (distinct fmul_0x7ffff1736ef0 (_ bv0 64)) true))))
 (let ((?x265 (bvmul node_0x7ffff1733560 node_0x7ffff1733560)))
 (let (($x271 (and (= fmul_0x7ffff1736ef0 ?x265) $x270)))
 (let (($x331 (= node_0x7ffff1733560 fsub_0x7ffff1733700)))
 (let (($x277 (= fsub_0x7ffff1733700 (bvsub node_0x7ffff17330f0 carg_node_0x7ffff172b0e0))))
 (let (($x332 (= node_0x7ffff17330f0 LdMem_0x7ffff1733290)))
 (let (($x177 (= LdMem_0x7ffff1733290 StMem_0x1211b650)))
 (let ((?x202 (bvadd node_0x7ffff1736980 node_0x7ffff17370e0)))
 (let (($x203 (= fadd_0x7ffff1737650 ?x202)))
 (let (($x335 (= node_0x7ffff1736980 fmul_0x7ffff1736b20)))
 (let (($x245 (= carg_node_0x7ffff172b780 (_ bv0 64))))
 (let ((?x243 (bvmul carg_node_0x7ffff172b780 carg_node_0x7ffff172b780)))
 (let (($x249 (and (= fmul_0x7ffff172e360 ?x243) (or (or $x245 $x245) (and (distinct fmul_0x7ffff172e360 (_ bv0 64)) true)))))
 (let (($x377 (= node_0x7ffff172e1e0 fmul_0x7ffff172e360)))
 (let (($x215 (or (or (= node_0x7ffff17365f0 (_ bv0 64)) (= node_0x7ffff172e1e0 (_ bv0 64))) (and (distinct fmul_0x7ffff1736b20 (_ bv0 64)) true))))
 (let ((?x208 (bvmul node_0x7ffff17365f0 node_0x7ffff172e1e0)))
 (let (($x209 (= fmul_0x7ffff1736b20 ?x208)))
 (let (($x216 (and $x209 $x215)))
 (let (($x336 (= node_0x7ffff17365f0 fmul_0x7ffff1736790)))
 (let (($x225 (or (or (= node_0x7ffff1732920 (_ bv0 64)) (= node_0x7ffff1732920 (_ bv0 64))) (and (distinct fmul_0x7ffff1736790 (_ bv0 64)) true))))
 (let ((?x220 (bvmul node_0x7ffff1732920 node_0x7ffff1732920)))
 (let (($x221 (= fmul_0x7ffff1736790 ?x220)))
 (let (($x226 (and $x221 $x225)))
 (let (($x337 (= node_0x7ffff1732920 fsub_0x7ffff1732ac0)))
 (let (($x232 (= fsub_0x7ffff1732ac0 (bvsub node_0x7ffff17324d0 carg_node_0x7ffff172b590))))
 (let (($x273 (= node_0x7ffff17324d0 LdMem_0x7ffff1732650)))
 (let (($x199 (= LdMem_0x7ffff1732650 StMem_0x1211be10)))
 (and (or (not (= R0x7ffff172aca0 (_ bv1 1))) $x199) $x199 (= StMem_0x1211be10 pcso_node_0x1211bc60) $x273 $x232 $x337 $x226 $x336 $x216 $x377 $x249 $x335 $x203 (or (not (= R0x7ffff172aca0 (_ bv1 1))) $x177) $x177 (= StMem_0x1211b650 pcso_node_0x1211b470) $x332 $x277 $x331 $x271 $x392 $x261 $x333 $x294 $x218 $x341 $x197 $x334 $x302 $x340))))))))))))))))))))))))))))))))))))))))))))))))
(assert
 (= carg_node_0x7ffff06e17e0_CS0x4148268 node_0x7ffff1736220))
(assert
 (let (($x358 (or (or (= (_ bv2 64) (_ bv0 64)) (= node_0x7ffff1735d10 (_ bv0 64))) (and (distinct fmul_0x7ffff17363c0 (_ bv0 64)) true))))
 (let (($x359 (and (= fmul_0x7ffff17363c0 (bvmul (_ bv2 64) node_0x7ffff1735d10)) $x358)))
 (let (($x314 (= node_0x7ffff1735d10 fadd_0x7ffff1735eb0)))
 (let (($x319 (= node_0x7ffff1735940 fmul_0x7ffff1735ae0)))
 (let (($x401 (or (or (= node_0x7ffff1735570 (_ bv0 64)) (= node_0x7ffff172e550 (_ bv0 64))) (and (distinct fmul_0x7ffff1735ae0 (_ bv0 64)) true))))
 (let (($x397 (= fmul_0x7ffff1735ae0 (bvmul node_0x7ffff1735570 node_0x7ffff172e550))))
 (let (($x402 (and $x397 $x401)))
 (let (($x518 (= node_0x7ffff1735570 fmul_0x7ffff1735710)))
 (let (($x411 (or (or (= node_0x7ffff1735100 (_ bv0 64)) (= node_0x7ffff1733560 (_ bv0 64))) (and (distinct fmul_0x7ffff1735710 (_ bv0 64)) true))))
 (let (($x407 (= fmul_0x7ffff1735710 (bvmul node_0x7ffff1735100 node_0x7ffff1733560))))
 (let (($x412 (and $x407 $x411)))
 (let (($x519 (= node_0x7ffff1735100 LdMem_0x7ffff17305e0)))
 (let (($x390 (= LdMem_0x7ffff17305e0 StMem_0x12117fc0)))
 (let ((?x364 (bvadd node_0x7ffff1734930 node_0x7ffff1735940)))
 (let (($x365 (= fadd_0x7ffff1735eb0 ?x364)))
 (let (($x315 (= node_0x7ffff1734930 fmul_0x7ffff1734ad0)))
 (let (($x374 (or (or (= node_0x7ffff1734150 (_ bv0 64)) (= node_0x7ffff172e1e0 (_ bv0 64))) (and (distinct fmul_0x7ffff1734ad0 (_ bv0 64)) true))))
 (let (($x370 (= fmul_0x7ffff1734ad0 (bvmul node_0x7ffff1734150 node_0x7ffff172e1e0))))
 (let (($x375 (and $x370 $x374)))
 (let (($x445 (= node_0x7ffff1734150 fmul_0x7ffff1734700)))
 (let (($x384 (or (or (= node_0x7ffff1733d30 (_ bv0 64)) (= node_0x7ffff1732920 (_ bv0 64))) (and (distinct fmul_0x7ffff1734700 (_ bv0 64)) true))))
 (let (($x380 (= fmul_0x7ffff1734700 (bvmul node_0x7ffff1733d30 node_0x7ffff1732920))))
 (let (($x385 (and $x380 $x384)))
 (let (($x446 (= node_0x7ffff1733d30 LdMem_0x7ffff172ed80)))
 (let (($x316 (= LdMem_0x7ffff172ed80 StMem_0x121187c0)))
 (and (or (not (= R0x7ffff172aca0 (_ bv1 1))) $x316) $x316 (= StMem_0x121187c0 pcso_node_0x12118610) $x446 $x385 $x445 $x375 $x315 $x365 (or (not (= R0x7ffff172aca0 (_ bv1 1))) $x390) $x390 (= StMem_0x12117fc0 pcso_node_0x12117e10) $x519 $x412 $x518 $x402 $x319 $x314 $x359 (= node_0x7ffff1736220 fmul_0x7ffff17363c0))))))))))))))))))))))))))))
(assert
 (= carg_node_0x7ffff06e1570_CS0x4148268 node_0x7ffff1731ac0))
(assert
 (let (($x361 (= node_0x7ffff1731510 fmul_0x7ffff1731890)))
 (let (($x491 (or (or (= node_0x7ffff1731140 (_ bv0 64)) (= node_0x7ffff172e550 (_ bv0 64))) (and (distinct fmul_0x7ffff1731890 (_ bv0 64)) true))))
 (let (($x487 (= fmul_0x7ffff1731890 (bvmul node_0x7ffff1731140 node_0x7ffff172e550))))
 (let (($x492 (and $x487 $x491)))
 (let (($x447 (= node_0x7ffff1731140 fmul_0x7ffff17312e0)))
 (let (($x503 (or (or (= node_0x7ffff1730440 (_ bv0 64)) (= node_0x7ffff1730cd0 (_ bv0 64))) (and (distinct fmul_0x7ffff17312e0 (_ bv0 64)) true))))
 (let (($x498 (= fmul_0x7ffff17312e0 (bvmul node_0x7ffff1730440 node_0x7ffff1730cd0))))
 (let (($x504 (and $x498 $x503)))
 (let ((?x457 (bvadd node_0x7ffff172fc50 node_0x7ffff1731510)))
 (let (($x458 (= fadd_0x7ffff1731c60 ?x457)))
 (let (($x435 (= node_0x7ffff172fc50 fmul_0x7ffff172fdf0)))
 (let (($x467 (or (or (= node_0x7ffff172f880 (_ bv0 64)) (= node_0x7ffff172e1e0 (_ bv0 64))) (and (distinct fmul_0x7ffff172fdf0 (_ bv0 64)) true))))
 (let (($x463 (= fmul_0x7ffff172fdf0 (bvmul node_0x7ffff172f880 node_0x7ffff172e1e0))))
 (let (($x468 (and $x463 $x467)))
 (let (($x436 (= node_0x7ffff172f880 fmul_0x7ffff172fa20)))
 (let (($x479 (or (or (= node_0x7ffff172ec00 (_ bv0 64)) (= node_0x7ffff172f410 (_ bv0 64))) (and (distinct fmul_0x7ffff172fa20 (_ bv0 64)) true))))
 (let (($x474 (= fmul_0x7ffff172fa20 (bvmul node_0x7ffff172ec00 node_0x7ffff172f410))))
 (let (($x480 (and $x474 $x479)))
 (and $x480 (= node_0x7ffff172ec00 LdMem_0x7ffff172ed80) (= node_0x7ffff172f410 LdMem_0x7ffff172ed80) $x436 $x468 $x435 $x458 $x504 (= node_0x7ffff1730440 LdMem_0x7ffff17305e0) (= node_0x7ffff1730cd0 LdMem_0x7ffff17305e0) $x447 $x492 $x361 (= node_0x7ffff1731ac0 fadd_0x7ffff1731c60)))))))))))))))))))))
(assert
 (= return_node_0x7ffff06e1fc0_CS0x4148268 ccso_node_0x7ffff1738220))
(assert
 (= parg_node_0x107ae730_CS0x4146978 node_0x1211b120))
(assert
 (let (($x557 (= LdMem_0x1211aad0 StMem_0x1211ac40)))
 (and (or (not (= R0x7ffff172aca0 (_ bv1 1))) $x557) $x557 (= StMem_0x1211ac40 parg_node_0x1211adf0) (= node_0x1211b120 LdMem_0x1211aad0))))
(assert
 (= node_0x107b0280_CS0x4146978 pcso_node_0x1211bc60))
(assert
 (= parg_node_0x107adc10_CS0x4146978 node_0x1211c2f0))
(assert
 (let (($x531 (= node_0x1211c2f0 LdMem_0x12119f60)))
 (let (($x533 (= LdMem_0x12119f60 StMem_0x1211a0a0)))
 (and (or (not (= R0x7ffff172aca0 (_ bv1 1))) $x533) $x533 (= StMem_0x1211a0a0 parg_node_0x1211a1b0) $x531))))
(assert
 (= node_0x107af910_CS0x4146978 pcso_node_0x1211b470))
(assert
 (= parg_node_0x107b61b0_CS0x41455c8 node_0x12119e20))
(assert
 (let (($x191 (= node_0x12119e20 LdMem_0x12117a90)))
 (let (($x186 (= LdMem_0x12117a90 StMem_0x12117bd0)))
 (and (or (not (= R0x7ffff172aca0 (_ bv1 1))) $x186) $x186 (= StMem_0x12117bd0 parg_node_0x12117ce0) $x191))))
(assert
 (= node_0x107b7d30_CS0x41455c8 pcso_node_0x12118610))
(assert
 (= parg_node_0x107b5690_CS0x41455c8 node_0x7c37ea0))
(assert
 (let (($x32 (= node_0x7c37ea0 LdMem_0x12117710)))
 (let (($x33 (= LdMem_0x12117710 StMem_0x12117850)))
 (and (or (not (= R0x7ffff172aca0 (_ bv1 1))) $x33) $x33 (= StMem_0x12117850 parg_node_0x12117960) $x32))))
(assert
 (= node_0x107b7470_CS0x41455c8 pcso_node_0x12117e10))
(assert
 (and (distinct carg_node_0x7ffff172be90 (_ bv0 64)) true))
(minimize node_0x7ffff17374b0)
(minimize fmul_0x7ffff1736b20)
(maximize fmul_0x7ffff17312e0)
(maximize carg_node_0x7ffff172b900)
(minimize pcso_node_0x1211bc60)
(minimize pcso_node_0x1211b470)
(minimize node_0x7ffff1733d30)
(maximize LdMem_0x7ffff1733290)
(maximize node_0x7ffff1735570)
(maximize pcso_node_0x1211bc60)
(minimize return_node_0x7ffff06e1fc0_CS0x4148268)
(maximize node_0x7ffff1737880)
(minimize fadd_0x7ffff1735eb0)
(check-sat)
(get-objectives)
